c Standarized MaxSat Instance
c{
c "sha1sum": "fb235911e16256d1679cedc18abea56326990fa3",
c "nvars": 150,
c "ncls": 3279,
c "total_lits": 6408,
c "nhards": 3129,
c "nhard_nlits": 6258,
c "nhard_len_stats":
c    { "min": 2,
c      "max": 2,
c      "ave": 2.0000,
c      "stddev": 0.0000 },
c "nsofts": 150,
c "nsoft_nlits": 150,
c "nsoft_len_stats":
c    { "min": 1,
c      "max": 1,
c      "ave": 1.0000,
c      "stddev": 0.0000 },
c "nsoft_wts": 1,
c "soft_wt_stats":
c    { "min": 1,
c      "max": 1,
c      "ave": 1.0000,
c      "stddev": 0.0000 }
c}
c------------------------------------------------------------
c Generated after 1 tries
c Graph with 150 nodes and 8046 edges, Max edges:11175
c PSEUDOBOOLEAN 150
1 -1 0
1 -2 0
1 -3 0
1 -4 0
1 -5 0
1 -6 0
1 -7 0
1 -8 0
1 -9 0
1 -10 0
1 -11 0
1 -12 0
1 -13 0
1 -14 0
1 -15 0
1 -16 0
1 -17 0
1 -18 0
1 -19 0
1 -20 0
1 -21 0
1 -22 0
1 -23 0
1 -24 0
1 -25 0
1 -26 0
1 -27 0
1 -28 0
1 -29 0
1 -30 0
1 -31 0
1 -32 0
1 -33 0
1 -34 0
1 -35 0
1 -36 0
1 -37 0
1 -38 0
1 -39 0
1 -40 0
1 -41 0
1 -42 0
1 -43 0
1 -44 0
1 -45 0
1 -46 0
1 -47 0
1 -48 0
1 -49 0
1 -50 0
1 -51 0
1 -52 0
1 -53 0
1 -54 0
1 -55 0
1 -56 0
1 -57 0
1 -58 0
1 -59 0
1 -60 0
1 -61 0
1 -62 0
1 -63 0
1 -64 0
1 -65 0
1 -66 0
1 -67 0
1 -68 0
1 -69 0
1 -70 0
1 -71 0
1 -72 0
1 -73 0
1 -74 0
1 -75 0
1 -76 0
1 -77 0
1 -78 0
1 -79 0
1 -80 0
1 -81 0
1 -82 0
1 -83 0
1 -84 0
1 -85 0
1 -86 0
1 -87 0
1 -88 0
1 -89 0
1 -90 0
1 -91 0
1 -92 0
1 -93 0
1 -94 0
1 -95 0
1 -96 0
1 -97 0
1 -98 0
1 -99 0
1 -100 0
1 -101 0
1 -102 0
1 -103 0
1 -104 0
1 -105 0
1 -106 0
1 -107 0
1 -108 0
1 -109 0
1 -110 0
1 -111 0
1 -112 0
1 -113 0
1 -114 0
1 -115 0
1 -116 0
1 -117 0
1 -118 0
1 -119 0
1 -120 0
1 -121 0
1 -122 0
1 -123 0
1 -124 0
1 -125 0
1 -126 0
1 -127 0
1 -128 0
1 -129 0
1 -130 0
1 -131 0
1 -132 0
1 -133 0
1 -134 0
1 -135 0
1 -136 0
1 -137 0
1 -138 0
1 -139 0
1 -140 0
1 -141 0
1 -142 0
1 -143 0
1 -144 0
1 -145 0
1 -146 0
1 -147 0
1 -148 0
1 -149 0
1 -150 0
h 1 2 0
h 1 6 0
h 1 12 0
h 1 18 0
h 1 22 0
h 1 23 0
h 1 29 0
h 1 31 0
h 1 33 0
h 1 35 0
h 1 38 0
h 1 46 0
h 1 53 0
h 1 56 0
h 1 70 0
h 1 71 0
h 1 78 0
h 1 79 0
h 1 83 0
h 1 85 0
h 1 86 0
h 1 88 0
h 1 94 0
h 1 106 0
h 1 113 0
h 1 114 0
h 1 118 0
h 1 119 0
h 1 120 0
h 1 122 0
h 1 126 0
h 1 127 0
h 1 129 0
h 1 130 0
h 1 134 0
h 1 135 0
h 1 139 0
h 1 140 0
h 1 141 0
h 1 146 0
h 1 148 0
h 1 150 0
h 2 15 0
h 2 20 0
h 2 22 0
h 2 24 0
h 2 31 0
h 2 36 0
h 2 41 0
h 2 47 0
h 2 49 0
h 2 65 0
h 2 67 0
h 2 71 0
h 2 72 0
h 2 73 0
h 2 75 0
h 2 76 0
h 2 80 0
h 2 82 0
h 2 89 0
h 2 92 0
h 2 99 0
h 2 103 0
h 2 105 0
h 2 107 0
h 2 111 0
h 2 114 0
h 2 117 0
h 2 122 0
h 2 124 0
h 2 131 0
h 2 134 0
h 2 139 0
h 2 141 0
h 2 148 0
h 2 149 0
h 3 5 0
h 3 6 0
h 3 9 0
h 3 12 0
h 3 20 0
h 3 21 0
h 3 23 0
h 3 26 0
h 3 28 0
h 3 36 0
h 3 39 0
h 3 41 0
h 3 44 0
h 3 47 0
h 3 49 0
h 3 51 0
h 3 52 0
h 3 54 0
h 3 55 0
h 3 56 0
h 3 57 0
h 3 58 0
h 3 60 0
h 3 61 0
h 3 65 0
h 3 68 0
h 3 74 0
h 3 75 0
h 3 79 0
h 3 86 0
h 3 88 0
h 3 90 0
h 3 91 0
h 3 93 0
h 3 96 0
h 3 98 0
h 3 99 0
h 3 100 0
h 3 104 0
h 3 109 0
h 3 110 0
h 3 112 0
h 3 117 0
h 3 118 0
h 3 122 0
h 3 127 0
h 3 129 0
h 3 130 0
h 3 132 0
h 3 138 0
h 3 139 0
h 3 150 0
h 4 8 0
h 4 14 0
h 4 16 0
h 4 19 0
h 4 24 0
h 4 27 0
h 4 30 0
h 4 32 0
h 4 38 0
h 4 49 0
h 4 60 0
h 4 61 0
h 4 65 0
h 4 71 0
h 4 73 0
h 4 75 0
h 4 76 0
h 4 77 0
h 4 78 0
h 4 79 0
h 4 83 0
h 4 85 0
h 4 92 0
h 4 93 0
h 4 98 0
h 4 106 0
h 4 107 0
h 4 108 0
h 4 111 0
h 4 116 0
h 4 121 0
h 4 123 0
h 4 124 0
h 4 131 0
h 4 143 0
h 4 145 0
h 4 150 0
h 5 7 0
h 5 22 0
h 5 24 0
h 5 26 0
h 5 29 0
h 5 30 0
h 5 33 0
h 5 38 0
h 5 41 0
h 5 44 0
h 5 45 0
h 5 49 0
h 5 54 0
h 5 61 0
h 5 70 0
h 5 71 0
h 5 74 0
h 5 77 0
h 5 80 0
h 5 81 0
h 5 83 0
h 5 89 0
h 5 91 0
h 5 99 0
h 5 103 0
h 5 105 0
h 5 107 0
h 5 111 0
h 5 114 0
h 5 121 0
h 5 122 0
h 5 128 0
h 5 130 0
h 5 131 0
h 5 132 0
h 5 136 0
h 5 137 0
h 5 141 0
h 5 143 0
h 5 144 0
h 5 146 0
h 5 148 0
h 6 16 0
h 6 19 0
h 6 25 0
h 6 40 0
h 6 42 0
h 6 45 0
h 6 54 0
h 6 58 0
h 6 64 0
h 6 66 0
h 6 72 0
h 6 75 0
h 6 78 0
h 6 84 0
h 6 89 0
h 6 92 0
h 6 93 0
h 6 95 0
h 6 114 0
h 6 127 0
h 6 130 0
h 6 131 0
h 6 132 0
h 6 139 0
h 6 146 0
h 6 147 0
h 6 148 0
h 6 149 0
h 6 150 0
h 7 9 0
h 7 14 0
h 7 25 0
h 7 29 0
h 7 33 0
h 7 37 0
h 7 46 0
h 7 55 0
h 7 62 0
h 7 66 0
h 7 69 0
h 7 73 0
h 7 74 0
h 7 75 0
h 7 82 0
h 7 88 0
h 7 92 0
h 7 94 0
h 7 95 0
h 7 101 0
h 7 103 0
h 7 104 0
h 7 108 0
h 7 110 0
h 7 111 0
h 7 114 0
h 7 116 0
h 7 117 0
h 7 119 0
h 7 121 0
h 7 125 0
h 7 134 0
h 7 142 0
h 7 149 0
h 8 12 0
h 8 16 0
h 8 20 0
h 8 21 0
h 8 25 0
h 8 32 0
h 8 33 0
h 8 38 0
h 8 39 0
h 8 41 0
h 8 43 0
h 8 48 0
h 8 49 0
h 8 60 0
h 8 62 0
h 8 64 0
h 8 65 0
h 8 68 0
h 8 74 0
h 8 75 0
h 8 82 0
h 8 90 0
h 8 92 0
h 8 95 0
h 8 97 0
h 8 98 0
h 8 107 0
h 8 113 0
h 8 120 0
h 8 126 0
h 8 128 0
h 8 130 0
h 8 132 0
h 8 135 0
h 8 140 0
h 8 142 0
h 8 147 0
h 8 148 0
h 9 11 0
h 9 18 0
h 9 21 0
h 9 24 0
h 9 26 0
h 9 29 0
h 9 31 0
h 9 34 0
h 9 38 0
h 9 47 0
h 9 49 0
h 9 72 0
h 9 77 0
h 9 80 0
h 9 81 0
h 9 86 0
h 9 88 0
h 9 100 0
h 9 106 0
h 9 107 0
h 9 109 0
h 9 114 0
h 9 116 0
h 9 120 0
h 9 125 0
h 9 131 0
h 9 133 0
h 9 137 0
h 9 141 0
h 9 142 0
h 9 145 0
h 9 146 0
h 9 148 0
h 9 149 0
h 10 11 0
h 10 19 0
h 10 20 0
h 10 27 0
h 10 30 0
h 10 36 0
h 10 38 0
h 10 43 0
h 10 44 0
h 10 45 0
h 10 53 0
h 10 57 0
h 10 59 0
h 10 60 0
h 10 67 0
h 10 68 0
h 10 69 0
h 10 71 0
h 10 76 0
h 10 77 0
h 10 83 0
h 10 89 0
h 10 91 0
h 10 93 0
h 10 95 0
h 10 105 0
h 10 106 0
h 10 118 0
h 10 120 0
h 10 125 0
h 10 126 0
h 10 128 0
h 10 131 0
h 10 134 0
h 10 137 0
h 10 141 0
h 10 142 0
h 10 144 0
h 10 146 0
h 11 15 0
h 11 16 0
h 11 23 0
h 11 27 0
h 11 30 0
h 11 31 0
h 11 35 0
h 11 37 0
h 11 41 0
h 11 42 0
h 11 52 0
h 11 56 0
h 11 67 0
h 11 73 0
h 11 75 0
h 11 78 0
h 11 79 0
h 11 83 0
h 11 86 0
h 11 89 0
h 11 91 0
h 11 92 0
h 11 94 0
h 11 97 0
h 11 101 0
h 11 102 0
h 11 106 0
h 11 109 0
h 11 112 0
h 11 113 0
h 11 117 0
h 11 119 0
h 11 123 0
h 11 130 0
h 11 131 0
h 11 135 0
h 11 140 0
h 11 149 0
h 12 13 0
h 12 19 0
h 12 22 0
h 12 23 0
h 12 24 0
h 12 25 0
h 12 31 0
h 12 36 0
h 12 37 0
h 12 38 0
h 12 39 0
h 12 40 0
h 12 41 0
h 12 47 0
h 12 50 0
h 12 53 0
h 12 64 0
h 12 66 0
h 12 68 0
h 12 76 0
h 12 80 0
h 12 81 0
h 12 82 0
h 12 85 0
h 12 87 0
h 12 88 0
h 12 91 0
h 12 94 0
h 12 96 0
h 12 97 0
h 12 104 0
h 12 107 0
h 12 112 0
h 12 122 0
h 12 124 0
h 12 131 0
h 12 141 0
h 12 144 0
h 12 149 0
h 13 19 0
h 13 24 0
h 13 33 0
h 13 34 0
h 13 35 0
h 13 40 0
h 13 47 0
h 13 48 0
h 13 55 0
h 13 57 0
h 13 58 0
h 13 60 0
h 13 64 0
h 13 66 0
h 13 67 0
h 13 74 0
h 13 75 0
h 13 76 0
h 13 83 0
h 13 84 0
h 13 86 0
h 13 88 0
h 13 93 0
h 13 100 0
h 13 101 0
h 13 102 0
h 13 108 0
h 13 109 0
h 13 115 0
h 13 118 0
h 13 121 0
h 13 123 0
h 13 129 0
h 13 130 0
h 13 136 0
h 13 139 0
h 13 145 0
h 13 147 0
h 13 149 0
h 13 150 0
h 14 15 0
h 14 17 0
h 14 22 0
h 14 24 0
h 14 26 0
h 14 27 0
h 14 34 0
h 14 35 0
h 14 38 0
h 14 41 0
h 14 42 0
h 14 45 0
h 14 46 0
h 14 47 0
h 14 52 0
h 14 53 0
h 14 55 0
h 14 57 0
h 14 60 0
h 14 61 0
h 14 62 0
h 14 65 0
h 14 67 0
h 14 70 0
h 14 72 0
h 14 73 0
h 14 78 0
h 14 79 0
h 14 83 0
h 14 88 0
h 14 90 0
h 14 93 0
h 14 94 0
h 14 95 0
h 14 99 0
h 14 106 0
h 14 108 0
h 14 109 0
h 14 114 0
h 14 116 0
h 14 118 0
h 14 119 0
h 14 122 0
h 14 132 0
h 14 133 0
h 14 139 0
h 14 144 0
h 14 148 0
h 15 22 0
h 15 29 0
h 15 33 0
h 15 38 0
h 15 40 0
h 15 44 0
h 15 54 0
h 15 55 0
h 15 58 0
h 15 61 0
h 15 62 0
h 15 67 0
h 15 69 0
h 15 74 0
h 15 81 0
h 15 84 0
h 15 85 0
h 15 86 0
h 15 92 0
h 15 97 0
h 15 98 0
h 15 100 0
h 15 109 0
h 15 122 0
h 15 123 0
h 15 125 0
h 15 128 0
h 15 129 0
h 15 139 0
h 16 17 0
h 16 22 0
h 16 23 0
h 16 26 0
h 16 29 0
h 16 30 0
h 16 31 0
h 16 36 0
h 16 40 0
h 16 44 0
h 16 45 0
h 16 56 0
h 16 65 0
h 16 66 0
h 16 67 0
h 16 68 0
h 16 70 0
h 16 76 0
h 16 78 0
h 16 82 0
h 16 83 0
h 16 87 0
h 16 91 0
h 16 99 0
h 16 100 0
h 16 101 0
h 16 103 0
h 16 104 0
h 16 107 0
h 16 110 0
h 16 114 0
h 16 120 0
h 16 126 0
h 16 129 0
h 16 131 0
h 16 136 0
h 16 137 0
h 16 142 0
h 16 147 0
h 16 150 0
h 17 19 0
h 17 23 0
h 17 24 0
h 17 30 0
h 17 39 0
h 17 52 0
h 17 55 0
h 17 56 0
h 17 59 0
h 17 68 0
h 17 71 0
h 17 77 0
h 17 79 0
h 17 82 0
h 17 94 0
h 17 95 0
h 17 96 0
h 17 99 0
h 17 100 0
h 17 105 0
h 17 106 0
h 17 107 0
h 17 113 0
h 17 114 0
h 17 116 0
h 17 121 0
h 17 122 0
h 17 125 0
h 17 127 0
h 17 131 0
h 17 132 0
h 17 145 0
h 17 146 0
h 17 148 0
h 17 150 0
h 18 28 0
h 18 30 0
h 18 39 0
h 18 42 0
h 18 45 0
h 18 46 0
h 18 48 0
h 18 54 0
h 18 55 0
h 18 56 0
h 18 57 0
h 18 59 0
h 18 60 0
h 18 63 0
h 18 67 0
h 18 68 0
h 18 71 0
h 18 72 0
h 18 73 0
h 18 75 0
h 18 79 0
h 18 80 0
h 18 90 0
h 18 92 0
h 18 109 0
h 18 112 0
h 18 114 0
h 18 115 0
h 18 123 0
h 18 124 0
h 18 128 0
h 18 130 0
h 18 133 0
h 18 137 0
h 18 138 0
h 18 139 0
h 18 140 0
h 18 149 0
h 18 150 0
h 19 23 0
h 19 37 0
h 19 40 0
h 19 46 0
h 19 50 0
h 19 51 0
h 19 52 0
h 19 53 0
h 19 54 0
h 19 56 0
h 19 62 0
h 19 65 0
h 19 68 0
h 19 80 0
h 19 94 0
h 19 95 0
h 19 98 0
h 19 100 0
h 19 101 0
h 19 102 0
h 19 108 0
h 19 114 0
h 19 126 0
h 19 128 0
h 19 131 0
h 19 133 0
h 19 137 0
h 19 143 0
h 19 145 0
h 20 24 0
h 20 28 0
h 20 31 0
h 20 32 0
h 20 37 0
h 20 47 0
h 20 49 0
h 20 52 0
h 20 54 0
h 20 61 0
h 20 64 0
h 20 65 0
h 20 66 0
h 20 71 0
h 20 75 0
h 20 99 0
h 20 100 0
h 20 101 0
h 20 102 0
h 20 106 0
h 20 119 0
h 20 120 0
h 20 122 0
h 20 134 0
h 20 137 0
h 20 139 0
h 20 147 0
h 20 148 0
h 21 25 0
h 21 27 0
h 21 30 0
h 21 31 0
h 21 37 0
h 21 44 0
h 21 48 0
h 21 49 0
h 21 51 0
h 21 56 0
h 21 63 0
h 21 64 0
h 21 66 0
h 21 67 0
h 21 68 0
h 21 70 0
h 21 73 0
h 21 76 0
h 21 78 0
h 21 80 0
h 21 84 0
h 21 87 0
h 21 88 0
h 21 90 0
h 21 94 0
h 21 105 0
h 21 107 0
h 21 109 0
h 21 113 0
h 21 116 0
h 21 118 0
h 21 120 0
h 21 121 0
h 21 125 0
h 21 132 0
h 21 135 0
h 21 140 0
h 21 145 0
h 21 146 0
h 21 150 0
h 22 24 0
h 22 29 0
h 22 33 0
h 22 36 0
h 22 41 0
h 22 47 0
h 22 48 0
h 22 53 0
h 22 56 0
h 22 57 0
h 22 60 0
h 22 62 0
h 22 64 0
h 22 74 0
h 22 78 0
h 22 81 0
h 22 83 0
h 22 84 0
h 22 87 0
h 22 89 0
h 22 94 0
h 22 95 0
h 22 109 0
h 22 112 0
h 22 117 0
h 22 119 0
h 22 123 0
h 22 129 0
h 22 133 0
h 22 135 0
h 22 138 0
h 22 139 0
h 22 142 0
h 22 144 0
h 22 145 0
h 23 24 0
h 23 26 0
h 23 28 0
h 23 31 0
h 23 34 0
h 23 35 0
h 23 43 0
h 23 44 0
h 23 52 0
h 23 54 0
h 23 56 0
h 23 57 0
h 23 59 0
h 23 64 0
h 23 67 0
h 23 68 0
h 23 78 0
h 23 85 0
h 23 86 0
h 23 87 0
h 23 93 0
h 23 97 0
h 23 100 0
h 23 101 0
h 23 104 0
h 23 105 0
h 23 110 0
h 23 111 0
h 23 113 0
h 23 118 0
h 23 131 0
h 23 137 0
h 23 140 0
h 23 142 0
h 23 145 0
h 23 146 0
h 23 149 0
h 24 25 0
h 24 36 0
h 24 37 0
h 24 38 0
h 24 40 0
h 24 41 0
h 24 42 0
h 24 44 0
h 24 45 0
h 24 48 0
h 24 50 0
h 24 51 0
h 24 53 0
h 24 54 0
h 24 58 0
h 24 59 0
h 24 60 0
h 24 64 0
h 24 68 0
h 24 72 0
h 24 75 0
h 24 79 0
h 24 82 0
h 24 84 0
h 24 89 0
h 24 94 0
h 24 103 0
h 24 104 0
h 24 106 0
h 24 111 0
h 24 113 0
h 24 116 0
h 24 124 0
h 24 126 0
h 24 127 0
h 24 128 0
h 24 135 0
h 24 136 0
h 24 137 0
h 24 139 0
h 24 140 0
h 24 144 0
h 24 147 0
h 25 27 0
h 25 29 0
h 25 31 0
h 25 33 0
h 25 36 0
h 25 37 0
h 25 42 0
h 25 43 0
h 25 45 0
h 25 48 0
h 25 49 0
h 25 50 0
h 25 51 0
h 25 54 0
h 25 55 0
h 25 60 0
h 25 62 0
h 25 63 0
h 25 67 0
h 25 76 0
h 25 79 0
h 25 84 0
h 25 94 0
h 25 100 0
h 25 101 0
h 25 103 0
h 25 106 0
h 25 109 0
h 25 110 0
h 25 114 0
h 25 115 0
h 25 116 0
h 25 117 0
h 25 126 0
h 25 129 0
h 25 131 0
h 25 135 0
h 25 138 0
h 25 144 0
h 25 145 0
h 25 147 0
h 25 150 0
h 26 32 0
h 26 34 0
h 26 39 0
h 26 41 0
h 26 59 0
h 26 61 0
h 26 62 0
h 26 63 0
h 26 67 0
h 26 69 0
h 26 71 0
h 26 75 0
h 26 82 0
h 26 83 0
h 26 84 0
h 26 86 0
h 26 94 0
h 26 95 0
h 26 97 0
h 26 98 0
h 26 101 0
h 26 107 0
h 26 110 0
h 26 113 0
h 26 117 0
h 26 118 0
h 26 119 0
h 26 121 0
h 26 122 0
h 26 126 0
h 26 129 0
h 26 130 0
h 26 135 0
h 26 141 0
h 26 144 0
h 26 145 0
h 26 149 0
h 27 29 0
h 27 37 0
h 27 40 0
h 27 42 0
h 27 43 0
h 27 49 0
h 27 50 0
h 27 51 0
h 27 54 0
h 27 58 0
h 27 59 0
h 27 61 0
h 27 62 0
h 27 67 0
h 27 70 0
h 27 73 0
h 27 77 0
h 27 79 0
h 27 87 0
h 27 90 0
h 27 91 0
h 27 93 0
h 27 96 0
h 27 97 0
h 27 99 0
h 27 101 0
h 27 105 0
h 27 107 0
h 27 111 0
h 27 114 0
h 27 118 0
h 27 119 0
h 27 133 0
h 27 134 0
h 27 138 0
h 27 141 0
h 28 30 0
h 28 32 0
h 28 34 0
h 28 41 0
h 28 42 0
h 28 45 0
h 28 48 0
h 28 49 0
h 28 51 0
h 28 57 0
h 28 58 0
h 28 60 0
h 28 62 0
h 28 74 0
h 28 76 0
h 28 78 0
h 28 81 0
h 28 85 0
h 28 100 0
h 28 105 0
h 28 107 0
h 28 112 0
h 28 114 0
h 28 118 0
h 28 121 0
h 28 125 0
h 28 132 0
h 28 134 0
h 28 140 0
h 28 145 0
h 28 148 0
h 29 31 0
h 29 34 0
h 29 36 0
h 29 39 0
h 29 46 0
h 29 49 0
h 29 51 0
h 29 53 0
h 29 58 0
h 29 59 0
h 29 60 0
h 29 62 0
h 29 63 0
h 29 65 0
h 29 68 0
h 29 73 0
h 29 76 0
h 29 80 0
h 29 84 0
h 29 86 0
h 29 89 0
h 29 96 0
h 29 98 0
h 29 103 0
h 29 109 0
h 29 114 0
h 29 117 0
h 29 119 0
h 29 124 0
h 29 129 0
h 29 130 0
h 29 131 0
h 29 133 0
h 29 135 0
h 29 141 0
h 29 144 0
h 29 146 0
h 29 150 0
h 30 31 0
h 30 32 0
h 30 33 0
h 30 42 0
h 30 51 0
h 30 53 0
h 30 56 0
h 30 61 0
h 30 68 0
h 30 70 0
h 30 71 0
h 30 76 0
h 30 81 0
h 30 84 0
h 30 85 0
h 30 87 0
h 30 88 0
h 30 89 0
h 30 94 0
h 30 96 0
h 30 97 0
h 30 98 0
h 30 105 0
h 30 111 0
h 30 112 0
h 30 119 0
h 30 123 0
h 30 129 0
h 30 130 0
h 30 131 0
h 30 142 0
h 30 144 0
h 30 150 0
h 31 33 0
h 31 37 0
h 31 40 0
h 31 41 0
h 31 43 0
h 31 44 0
h 31 49 0
h 31 65 0
h 31 66 0
h 31 67 0
h 31 83 0
h 31 85 0
h 31 87 0
h 31 119 0
h 31 122 0
h 31 124 0
h 31 127 0
h 31 135 0
h 31 138 0
h 31 139 0
h 31 140 0
h 31 141 0
h 31 142 0
h 31 145 0
h 31 150 0
h 32 37 0
h 32 41 0
h 32 42 0
h 32 46 0
h 32 48 0
h 32 49 0
h 32 76 0
h 32 87 0
h 32 93 0
h 32 100 0
h 32 103 0
h 32 104 0
h 32 111 0
h 32 114 0
h 32 117 0
h 32 122 0
h 32 124 0
h 32 128 0
h 32 132 0
h 32 140 0
h 32 142 0
h 32 144 0
h 32 147 0
h 32 149 0
h 32 150 0
h 33 36 0
h 33 37 0
h 33 45 0
h 33 47 0
h 33 48 0
h 33 50 0
h 33 51 0
h 33 56 0
h 33 57 0
h 33 58 0
h 33 59 0
h 33 68 0
h 33 76 0
h 33 79 0
h 33 81 0
h 33 83 0
h 33 85 0
h 33 86 0
h 33 89 0
h 33 92 0
h 33 94 0
h 33 95 0
h 33 105 0
h 33 106 0
h 33 107 0
h 33 108 0
h 33 112 0
h 33 113 0
h 33 114 0
h 33 118 0
h 33 119 0
h 33 123 0
h 33 136 0
h 33 139 0
h 33 140 0
h 33 144 0
h 33 145 0
h 33 148 0
h 33 149 0
h 34 43 0
h 34 53 0
h 34 56 0
h 34 57 0
h 34 59 0
h 34 61 0
h 34 65 0
h 34 72 0
h 34 76 0
h 34 78 0
h 34 81 0
h 34 84 0
h 34 85 0
h 34 91 0
h 34 92 0
h 34 98 0
h 34 99 0
h 34 104 0
h 34 106 0
h 34 107 0
h 34 108 0
h 34 109 0
h 34 115 0
h 34 118 0
h 34 119 0
h 34 120 0
h 34 121 0
h 34 122 0
h 34 125 0
h 34 131 0
h 34 132 0
h 34 133 0
h 34 143 0
h 34 145 0
h 34 149 0
h 35 37 0
h 35 41 0
h 35 45 0
h 35 46 0
h 35 50 0
h 35 53 0
h 35 54 0
h 35 56 0
h 35 61 0
h 35 68 0
h 35 70 0
h 35 71 0
h 35 77 0
h 35 78 0
h 35 83 0
h 35 86 0
h 35 87 0
h 35 88 0
h 35 91 0
h 35 93 0
h 35 98 0
h 35 99 0
h 35 103 0
h 35 111 0
h 35 118 0
h 35 124 0
h 35 139 0
h 35 141 0
h 35 143 0
h 35 145 0
h 35 149 0
h 35 150 0
h 36 42 0
h 36 49 0
h 36 52 0
h 36 53 0
h 36 54 0
h 36 55 0
h 36 57 0
h 36 64 0
h 36 68 0
h 36 72 0
h 36 74 0
h 36 75 0
h 36 77 0
h 36 82 0
h 36 89 0
h 36 98 0
h 36 99 0
h 36 102 0
h 36 106 0
h 36 113 0
h 36 114 0
h 36 116 0
h 36 121 0
h 36 126 0
h 36 132 0
h 36 140 0
h 36 144 0
h 36 146 0
h 36 147 0
h 36 150 0
h 37 44 0
h 37 45 0
h 37 47 0
h 37 48 0
h 37 49 0
h 37 51 0
h 37 59 0
h 37 61 0
h 37 62 0
h 37 67 0
h 37 69 0
h 37 74 0
h 37 81 0
h 37 82 0
h 37 88 0
h 37 92 0
h 37 93 0
h 37 98 0
h 37 100 0
h 37 101 0
h 37 110 0
h 37 113 0
h 37 118 0
h 37 123 0
h 37 124 0
h 37 132 0
h 37 139 0
h 37 140 0
h 37 146 0
h 37 150 0
h 38 39 0
h 38 42 0
h 38 44 0
h 38 46 0
h 38 50 0
h 38 53 0
h 38 55 0
h 38 57 0
h 38 64 0
h 38 65 0
h 38 68 0
h 38 80 0
h 38 81 0
h 38 83 0
h 38 89 0
h 38 96 0
h 38 97 0
h 38 100 0
h 38 101 0
h 38 102 0
h 38 120 0
h 38 121 0
h 38 123 0
h 38 124 0
h 38 127 0
h 38 128 0
h 38 132 0
h 38 134 0
h 38 137 0
h 38 139 0
h 38 143 0
h 38 148 0
h 38 149 0
h 39 46 0
h 39 47 0
h 39 50 0
h 39 55 0
h 39 65 0
h 39 69 0
h 39 76 0
h 39 78 0
h 39 81 0
h 39 83 0
h 39 85 0
h 39 87 0
h 39 88 0
h 39 90 0
h 39 96 0
h 39 99 0
h 39 102 0
h 39 104 0
h 39 105 0
h 39 106 0
h 39 108 0
h 39 109 0
h 39 116 0
h 39 117 0
h 39 122 0
h 39 123 0
h 39 126 0
h 39 127 0
h 39 128 0
h 39 130 0
h 39 133 0
h 39 135 0
h 39 137 0
h 39 139 0
h 39 140 0
h 39 141 0
h 39 149 0
h 40 41 0
h 40 43 0
h 40 45 0
h 40 46 0
h 40 56 0
h 40 57 0
h 40 58 0
h 40 59 0
h 40 61 0
h 40 63 0
h 40 67 0
h 40 71 0
h 40 73 0
h 40 74 0
h 40 77 0
h 40 79 0
h 40 86 0
h 40 95 0
h 40 99 0
h 40 103 0
h 40 105 0
h 40 107 0
h 40 109 0
h 40 110 0
h 40 111 0
h 40 116 0
h 40 122 0
h 40 129 0
h 40 131 0
h 40 134 0
h 40 142 0
h 40 144 0
h 40 145 0
h 40 147 0
h 40 149 0
h 41 42 0
h 41 43 0
h 41 47 0
h 41 49 0
h 41 54 0
h 41 57 0
h 41 72 0
h 41 74 0
h 41 76 0
h 41 82 0
h 41 85 0
h 41 88 0
h 41 100 0
h 41 109 0
h 41 113 0
h 41 125 0
h 41 127 0
h 41 128 0
h 41 134 0
h 41 138 0
h 41 144 0
h 41 147 0
h 42 45 0
h 42 49 0
h 42 50 0
h 42 54 0
h 42 55 0
h 42 56 0
h 42 59 0
h 42 61 0
h 42 62 0
h 42 64 0
h 42 67 0
h 42 76 0
h 42 77 0
h 42 80 0
h 42 83 0
h 42 86 0
h 42 89 0
h 42 96 0
h 42 99 0
h 42 100 0
h 42 101 0
h 42 102 0
h 42 105 0
h 42 109 0
h 42 116 0
h 42 120 0
h 42 125 0
h 42 127 0
h 42 130 0
h 42 133 0
h 42 134 0
h 42 137 0
h 42 146 0
h 42 148 0
h 43 53 0
h 43 55 0
h 43 58 0
h 43 69 0
h 43 72 0
h 43 74 0
h 43 76 0
h 43 79 0
h 43 80 0
h 43 86 0
h 43 93 0
h 43 95 0
h 43 99 0
h 43 101 0
h 43 107 0
h 43 108 0
h 43 109 0
h 43 112 0
h 43 119 0
h 43 130 0
h 43 135 0
h 43 136 0
h 43 138 0
h 43 139 0
h 43 147 0
h 44 46 0
h 44 47 0
h 44 58 0
h 44 59 0
h 44 61 0
h 44 65 0
h 44 67 0
h 44 69 0
h 44 71 0
h 44 72 0
h 44 73 0
h 44 80 0
h 44 88 0
h 44 95 0
h 44 101 0
h 44 104 0
h 44 106 0
h 44 112 0
h 44 114 0
h 44 116 0
h 44 120 0
h 44 123 0
h 44 124 0
h 44 125 0
h 44 128 0
h 44 133 0
h 44 135 0
h 44 141 0
h 44 145 0
h 44 146 0
h 44 148 0
h 44 150 0
h 45 48 0
h 45 50 0
h 45 52 0
h 45 61 0
h 45 64 0
h 45 65 0
h 45 68 0
h 45 71 0
h 45 72 0
h 45 76 0
h 45 77 0
h 45 78 0
h 45 89 0
h 45 94 0
h 45 98 0
h 45 100 0
h 45 103 0
h 45 106 0
h 45 108 0
h 45 113 0
h 45 115 0
h 45 116 0
h 45 117 0
h 45 118 0
h 45 119 0
h 45 123 0
h 45 129 0
h 45 131 0
h 45 132 0
h 45 142 0
h 45 144 0
h 45 146 0
h 46 50 0
h 46 51 0
h 46 58 0
h 46 59 0
h 46 64 0
h 46 66 0
h 46 76 0
h 46 82 0
h 46 89 0
h 46 91 0
h 46 92 0
h 46 94 0
h 46 100 0
h 46 110 0
h 46 115 0
h 46 124 0
h 46 128 0
h 46 129 0
h 46 132 0
h 46 135 0
h 46 138 0
h 46 139 0
h 46 144 0
h 46 148 0
h 47 48 0
h 47 50 0
h 47 55 0
h 47 57 0
h 47 58 0
h 47 64 0
h 47 75 0
h 47 80 0
h 47 82 0
h 47 83 0
h 47 88 0
h 47 91 0
h 47 94 0
h 47 95 0
h 47 97 0
h 47 98 0
h 47 105 0
h 47 106 0
h 47 112 0
h 47 120 0
h 47 124 0
h 47 125 0
h 47 126 0
h 47 138 0
h 47 142 0
h 47 144 0
h 47 146 0
h 47 150 0
h 48 51 0
h 48 59 0
h 48 63 0
h 48 70 0
h 48 71 0
h 48 74 0
h 48 88 0
h 48 91 0
h 48 96 0
h 48 101 0
h 48 113 0
h 48 114 0
h 48 126 0
h 48 130 0
h 48 132 0
h 48 137 0
h 48 144 0
h 48 146 0
h 48 148 0
h 48 149 0
h 49 51 0
h 49 56 0
h 49 59 0
h 49 60 0
h 49 61 0
h 49 67 0
h 49 68 0
h 49 73 0
h 49 78 0
h 49 86 0
h 49 88 0
h 49 89 0
h 49 93 0
h 49 97 0
h 49 102 0
h 49 103 0
h 49 108 0
h 49 117 0
h 49 124 0
h 49 128 0
h 49 136 0
h 49 142 0
h 50 52 0
h 50 53 0
h 50 56 0
h 50 65 0
h 50 67 0
h 50 73 0
h 50 74 0
h 50 76 0
h 50 81 0
h 50 86 0
h 50 87 0
h 50 91 0
h 50 93 0
h 50 94 0
h 50 95 0
h 50 98 0
h 50 101 0
h 50 103 0
h 50 104 0
h 50 108 0
h 50 109 0
h 50 110 0
h 50 115 0
h 50 120 0
h 50 122 0
h 50 124 0
h 50 133 0
h 50 136 0
h 51 52 0
h 51 55 0
h 51 58 0
h 51 61 0
h 51 65 0
h 51 66 0
h 51 68 0
h 51 73 0
h 51 80 0
h 51 81 0
h 51 85 0
h 51 91 0
h 51 95 0
h 51 97 0
h 51 101 0
h 51 103 0
h 51 107 0
h 51 110 0
h 51 111 0
h 51 112 0
h 51 118 0
h 51 119 0
h 51 121 0
h 51 125 0
h 51 135 0
h 51 137 0
h 51 139 0
h 51 141 0
h 51 143 0
h 51 145 0
h 51 146 0
h 51 148 0
h 52 54 0
h 52 55 0
h 52 57 0
h 52 60 0
h 52 62 0
h 52 73 0
h 52 76 0
h 52 92 0
h 52 94 0
h 52 96 0
h 52 98 0
h 52 103 0
h 52 107 0
h 52 109 0
h 52 110 0
h 52 113 0
h 52 114 0
h 52 119 0
h 52 123 0
h 52 129 0
h 52 132 0
h 52 141 0
h 52 145 0
h 53 56 0
h 53 59 0
h 53 63 0
h 53 69 0
h 53 70 0
h 53 71 0
h 53 72 0
h 53 73 0
h 53 76 0
h 53 77 0
h 53 82 0
h 53 88 0
h 53 93 0
h 53 96 0
h 53 98 0
h 53 100 0
h 53 103 0
h 53 112 0
h 53 119 0
h 53 125 0
h 53 128 0
h 53 131 0
h 53 132 0
h 53 134 0
h 53 138 0
h 53 139 0
h 53 142 0
h 53 144 0
h 53 146 0
h 53 150 0
h 54 57 0
h 54 59 0
h 54 66 0
h 54 73 0
h 54 75 0
h 54 76 0
h 54 78 0
h 54 84 0
h 54 87 0
h 54 88 0
h 54 89 0
h 54 93 0
h 54 103 0
h 54 106 0
h 54 108 0
h 54 124 0
h 54 125 0
h 54 129 0
h 54 130 0
h 54 131 0
h 54 134 0
h 54 136 0
h 54 138 0
h 54 143 0
h 55 59 0
h 55 60 0
h 55 63 0
h 55 65 0
h 55 66 0
h 55 70 0
h 55 74 0
h 55 75 0
h 55 76 0
h 55 83 0
h 55 89 0
h 55 90 0
h 55 91 0
h 55 95 0
h 55 101 0
h 55 105 0
h 55 110 0
h 55 111 0
h 55 125 0
h 55 135 0
h 55 137 0
h 55 144 0
h 55 147 0
h 55 148 0
h 56 58 0
h 56 60 0
h 56 66 0
h 56 71 0
h 56 76 0
h 56 81 0
h 56 84 0
h 56 86 0
h 56 89 0
h 56 94 0
h 56 98 0
h 56 102 0
h 56 108 0
h 56 109 0
h 56 113 0
h 56 114 0
h 56 116 0
h 56 118 0
h 56 122 0
h 56 130 0
h 56 131 0
h 56 139 0
h 56 140 0
h 56 147 0
h 57 61 0
h 57 64 0
h 57 68 0
h 57 73 0
h 57 80 0
h 57 87 0
h 57 91 0
h 57 95 0
h 57 97 0
h 57 98 0
h 57 104 0
h 57 105 0
h 57 106 0
h 57 109 0
h 57 110 0
h 57 112 0
h 57 113 0
h 57 116 0
h 57 117 0
h 57 118 0
h 57 120 0
h 57 121 0
h 57 133 0
h 57 136 0
h 57 138 0
h 57 140 0
h 57 144 0
h 57 147 0
h 57 150 0
h 58 61 0
h 58 62 0
h 58 63 0
h 58 66 0
h 58 69 0
h 58 70 0
h 58 77 0
h 58 78 0
h 58 80 0
h 58 82 0
h 58 83 0
h 58 84 0
h 58 87 0
h 58 89 0
h 58 92 0
h 58 95 0
h 58 99 0
h 58 100 0
h 58 108 0
h 58 111 0
h 58 113 0
h 58 116 0
h 58 122 0
h 58 129 0
h 58 141 0
h 58 142 0
h 58 145 0
h 58 148 0
h 59 60 0
h 59 61 0
h 59 64 0
h 59 70 0
h 59 75 0
h 59 76 0
h 59 79 0
h 59 81 0
h 59 86 0
h 59 88 0
h 59 94 0
h 59 97 0
h 59 99 0
h 59 104 0
h 59 108 0
h 59 115 0
h 59 120 0
h 59 121 0
h 59 122 0
h 59 123 0
h 59 125 0
h 59 127 0
h 59 132 0
h 59 134 0
h 59 136 0
h 59 144 0
h 59 148 0
h 60 63 0
h 60 64 0
h 60 66 0
h 60 67 0
h 60 70 0
h 60 72 0
h 60 76 0
h 60 77 0
h 60 79 0
h 60 80 0
h 60 83 0
h 60 87 0
h 60 96 0
h 60 101 0
h 60 107 0
h 60 114 0
h 60 115 0
h 60 125 0
h 60 126 0
h 60 128 0
h 60 130 0
h 60 134 0
h 60 135 0
h 60 143 0
h 60 150 0
h 61 62 0
h 61 64 0
h 61 72 0
h 61 74 0
h 61 75 0
h 61 78 0
h 61 81 0
h 61 85 0
h 61 92 0
h 61 97 0
h 61 100 0
h 61 103 0
h 61 105 0
h 61 110 0
h 61 114 0
h 61 118 0
h 61 119 0
h 61 122 0
h 61 123 0
h 61 127 0
h 61 129 0
h 61 135 0
h 61 139 0
h 61 143 0
h 61 145 0
h 61 146 0
h 61 147 0
h 61 149 0
h 61 150 0
h 62 66 0
h 62 72 0
h 62 78 0
h 62 79 0
h 62 80 0
h 62 81 0
h 62 90 0
h 62 91 0
h 62 97 0
h 62 99 0
h 62 103 0
h 62 108 0
h 62 110 0
h 62 115 0
h 62 116 0
h 62 118 0
h 62 119 0
h 62 121 0
h 62 122 0
h 62 124 0
h 62 126 0
h 62 134 0
h 62 138 0
h 62 142 0
h 62 143 0
h 62 145 0
h 62 148 0
h 63 64 0
h 63 69 0
h 63 73 0
h 63 75 0
h 63 76 0
h 63 77 0
h 63 83 0
h 63 97 0
h 63 102 0
h 63 104 0
h 63 108 0
h 63 111 0
h 63 112 0
h 63 117 0
h 63 119 0
h 63 122 0
h 63 125 0
h 63 128 0
h 63 131 0
h 63 132 0
h 63 139 0
h 64 68 0
h 64 79 0
h 64 82 0
h 64 84 0
h 64 88 0
h 64 92 0
h 64 93 0
h 64 99 0
h 64 100 0
h 64 101 0
h 64 110 0
h 64 120 0
h 64 121 0
h 64 125 0
h 64 127 0
h 64 130 0
h 64 136 0
h 64 139 0
h 64 141 0
h 64 144 0
h 64 146 0
h 64 150 0
h 65 66 0
h 65 67 0
h 65 70 0
h 65 78 0
h 65 87 0
h 65 88 0
h 65 97 0
h 65 100 0
h 65 101 0
h 65 103 0
h 65 107 0
h 65 109 0
h 65 119 0
h 65 124 0
h 65 130 0
h 65 131 0
h 65 132 0
h 65 133 0
h 65 142 0
h 65 145 0
h 66 75 0
h 66 77 0
h 66 79 0
h 66 80 0
h 66 82 0
h 66 83 0
h 66 89 0
h 66 91 0
h 66 94 0
h 66 95 0
h 66 97 0
h 66 103 0
h 66 106 0
h 66 111 0
h 66 115 0
h 66 119 0
h 66 120 0
h 66 124 0
h 66 130 0
h 66 136 0
h 66 142 0
h 66 144 0
h 66 145 0
h 66 148 0
h 66 150 0
h 67 72 0
h 67 74 0
h 67 75 0
h 67 80 0
h 67 88 0
h 67 89 0
h 67 90 0
h 67 91 0
h 67 94 0
h 67 96 0
h 67 98 0
h 67 99 0
h 67 101 0
h 67 103 0
h 67 104 0
h 67 109 0
h 67 114 0
h 67 119 0
h 67 122 0
h 67 128 0
h 67 130 0
h 67 135 0
h 67 137 0
h 67 138 0
h 67 139 0
h 67 145 0
h 67 149 0
h 68 69 0
h 68 70 0
h 68 74 0
h 68 75 0
h 68 76 0
h 68 96 0
h 68 97 0
h 68 98 0
h 68 99 0
h 68 103 0
h 68 104 0
h 68 105 0
h 68 110 0
h 68 111 0
h 68 112 0
h 68 113 0
h 68 114 0
h 68 115 0
h 68 117 0
h 68 118 0
h 68 120 0
h 68 122 0
h 68 123 0
h 68 125 0
h 68 127 0
h 68 132 0
h 68 136 0
h 68 137 0
h 68 139 0
h 68 141 0
h 68 144 0
h 68 145 0
h 68 149 0
h 69 70 0
h 69 72 0
h 69 73 0
h 69 74 0
h 69 78 0
h 69 80 0
h 69 82 0
h 69 85 0
h 69 90 0
h 69 91 0
h 69 93 0
h 69 94 0
h 69 98 0
h 69 101 0
h 69 109 0
h 69 113 0
h 69 122 0
h 69 123 0
h 69 129 0
h 69 131 0
h 69 139 0
h 69 146 0
h 69 149 0
h 70 72 0
h 70 76 0
h 70 83 0
h 70 85 0
h 70 93 0
h 70 94 0
h 70 95 0
h 70 96 0
h 70 98 0
h 70 100 0
h 70 102 0
h 70 103 0
h 70 107 0
h 70 114 0
h 70 115 0
h 70 118 0
h 70 124 0
h 70 129 0
h 70 130 0
h 70 131 0
h 70 135 0
h 70 136 0
h 70 138 0
h 70 140 0
h 70 141 0
h 70 144 0
h 70 147 0
h 70 149 0
h 70 150 0
h 71 75 0
h 71 77 0
h 71 80 0
h 71 83 0
h 71 85 0
h 71 86 0
h 71 88 0
h 71 89 0
h 71 91 0
h 71 106 0
h 71 107 0
h 71 109 0
h 71 110 0
h 71 111 0
h 71 114 0
h 71 116 0
h 71 117 0
h 71 125 0
h 71 126 0
h 71 134 0
h 71 142 0
h 71 145 0
h 71 146 0
h 71 147 0
h 72 81 0
h 72 84 0
h 72 87 0
h 72 90 0
h 72 91 0
h 72 94 0
h 72 96 0
h 72 99 0
h 72 101 0
h 72 104 0
h 72 106 0
h 72 115 0
h 72 118 0
h 72 119 0
h 72 120 0
h 72 123 0
h 72 126 0
h 72 127 0
h 72 128 0
h 72 133 0
h 72 136 0
h 72 138 0
h 72 144 0
h 72 148 0
h 72 150 0
h 73 74 0
h 73 79 0
h 73 80 0
h 73 82 0
h 73 92 0
h 73 95 0
h 73 99 0
h 73 102 0
h 73 104 0
h 73 108 0
h 73 110 0
h 73 113 0
h 73 115 0
h 73 116 0
h 73 120 0
h 73 123 0
h 73 126 0
h 73 127 0
h 73 136 0
h 73 138 0
h 73 141 0
h 73 145 0
h 73 146 0
h 73 148 0
h 73 149 0
h 74 78 0
h 74 79 0
h 74 83 0
h 74 89 0
h 74 91 0
h 74 93 0
h 74 95 0
h 74 101 0
h 74 103 0
h 74 105 0
h 74 109 0
h 74 111 0
h 74 118 0
h 74 119 0
h 74 122 0
h 74 126 0
h 74 132 0
h 74 133 0
h 74 136 0
h 74 137 0
h 74 141 0
h 74 149 0
h 75 78 0
h 75 82 0
h 75 83 0
h 75 84 0
h 75 89 0
h 75 93 0
h 75 98 0
h 75 108 0
h 75 114 0
h 75 120 0
h 75 121 0
h 75 122 0
h 75 123 0
h 75 124 0
h 75 128 0
h 75 131 0
h 75 132 0
h 75 139 0
h 75 143 0
h 75 145 0
h 76 78 0
h 76 79 0
h 76 83 0
h 76 89 0
h 76 91 0
h 76 92 0
h 76 106 0
h 76 108 0
h 76 113 0
h 76 118 0
h 76 121 0
h 76 122 0
h 76 123 0
h 76 124 0
h 76 126 0
h 76 129 0
h 76 130 0
h 76 132 0
h 76 133 0
h 76 141 0
h 76 144 0
h 76 147 0
h 77 85 0
h 77 89 0
h 77 90 0
h 77 100 0
h 77 101 0
h 77 103 0
h 77 104 0
h 77 107 0
h 77 110 0
h 77 111 0
h 77 112 0
h 77 116 0
h 77 118 0
h 77 123 0
h 77 129 0
h 77 133 0
h 77 138 0
h 77 145 0
h 77 148 0
h 77 150 0
h 78 79 0
h 78 84 0
h 78 90 0
h 78 93 0
h 78 94 0
h 78 95 0
h 78 96 0
h 78 99 0
h 78 100 0
h 78 107 0
h 78 108 0
h 78 113 0
h 78 120 0
h 78 123 0
h 78 124 0
h 78 127 0
h 78 136 0
h 78 139 0
h 78 144 0
h 78 146 0
h 78 147 0
h 79 80 0
h 79 81 0
h 79 83 0
h 79 84 0
h 79 86 0
h 79 87 0
h 79 91 0
h 79 97 0
h 79 107 0
h 79 119 0
h 79 121 0
h 79 123 0
h 79 126 0
h 79 131 0
h 79 134 0
h 79 135 0
h 79 137 0
h 79 138 0
h 79 139 0
h 79 140 0
h 79 145 0
h 79 147 0
h 79 149 0
h 79 150 0
h 80 81 0
h 80 83 0
h 80 105 0
h 80 109 0
h 80 110 0
h 80 112 0
h 80 114 0
h 80 125 0
h 80 130 0
h 80 132 0
h 80 134 0
h 80 141 0
h 80 146 0
h 80 147 0
h 80 149 0
h 81 84 0
h 81 85 0
h 81 88 0
h 81 95 0
h 81 99 0
h 81 103 0
h 81 114 0
h 81 116 0
h 81 124 0
h 81 127 0
h 81 128 0
h 81 135 0
h 81 136 0
h 81 137 0
h 81 147 0
h 82 84 0
h 82 95 0
h 82 107 0
h 82 109 0
h 82 112 0
h 82 113 0
h 82 114 0
h 82 119 0
h 82 129 0
h 82 130 0
h 82 131 0
h 82 134 0
h 82 135 0
h 82 139 0
h 82 141 0
h 82 144 0
h 82 146 0
h 82 148 0
h 82 149 0
h 83 84 0
h 83 85 0
h 83 90 0
h 83 98 0
h 83 108 0
h 83 112 0
h 83 113 0
h 83 118 0
h 83 124 0
h 83 130 0
h 83 132 0
h 83 133 0
h 83 135 0
h 83 142 0
h 83 145 0
h 83 148 0
h 83 149 0
h 84 85 0
h 84 86 0
h 84 88 0
h 84 90 0
h 84 92 0
h 84 93 0
h 84 97 0
h 84 99 0
h 84 102 0
h 84 103 0
h 84 113 0
h 84 121 0
h 84 122 0
h 84 127 0
h 84 128 0
h 84 130 0
h 84 132 0
h 84 133 0
h 84 135 0
h 84 137 0
h 84 139 0
h 84 144 0
h 85 87 0
h 85 88 0
h 85 92 0
h 85 95 0
h 85 97 0
h 85 98 0
h 85 101 0
h 85 105 0
h 85 108 0
h 85 110 0
h 85 123 0
h 85 124 0
h 85 130 0
h 85 132 0
h 85 134 0
h 85 142 0
h 85 144 0
h 85 148 0
h 85 149 0
h 86 88 0
h 86 93 0
h 86 96 0
h 86 97 0
h 86 98 0
h 86 101 0
h 86 105 0
h 86 110 0
h 86 114 0
h 86 115 0
h 86 117 0
h 86 118 0
h 86 119 0
h 86 121 0
h 86 126 0
h 86 127 0
h 86 128 0
h 86 136 0
h 86 138 0
h 86 140 0
h 86 141 0
h 86 144 0
h 86 150 0
h 87 89 0
h 87 97 0
h 87 104 0
h 87 109 0
h 87 112 0
h 87 113 0
h 87 119 0
h 87 120 0
h 87 123 0
h 87 130 0
h 87 131 0
h 87 140 0
h 87 145 0
h 87 148 0
h 88 90 0
h 88 91 0
h 88 93 0
h 88 95 0
h 88 101 0
h 88 103 0
h 88 109 0
h 88 110 0
h 88 113 0
h 88 114 0
h 88 121 0
h 88 124 0
h 88 125 0
h 88 127 0
h 88 128 0
h 88 130 0
h 88 134 0
h 88 135 0
h 88 139 0
h 89 91 0
h 89 94 0
h 89 99 0
h 89 100 0
h 89 103 0
h 89 105 0
h 89 106 0
h 89 111 0
h 89 113 0
h 89 118 0
h 89 119 0
h 89 124 0
h 89 139 0
h 89 146 0
h 89 148 0
h 90 94 0
h 90 100 0
h 90 102 0
h 90 103 0
h 90 110 0
h 90 117 0
h 90 118 0
h 90 124 0
h 90 134 0
h 90 136 0
h 90 137 0
h 90 141 0
h 90 143 0
h 90 144 0
h 90 146 0
h 91 93 0
h 91 94 0
h 91 95 0
h 91 97 0
h 91 102 0
h 91 105 0
h 91 107 0
h 91 127 0
h 91 128 0
h 91 131 0
h 91 133 0
h 91 134 0
h 91 136 0
h 91 143 0
h 91 148 0
h 92 103 0
h 92 109 0
h 92 110 0
h 92 111 0
h 92 112 0
h 92 114 0
h 92 116 0
h 92 123 0
h 92 124 0
h 92 125 0
h 92 129 0
h 92 133 0
h 92 140 0
h 92 141 0
h 92 142 0
h 92 150 0
h 93 97 0
h 93 100 0
h 93 101 0
h 93 102 0
h 93 108 0
h 93 111 0
h 93 113 0
h 93 122 0
h 93 124 0
h 93 126 0
h 93 131 0
h 93 133 0
h 93 135 0
h 93 142 0
h 93 145 0
h 93 146 0
h 94 95 0
h 94 96 0
h 94 99 0
h 94 109 0
h 94 113 0
h 94 116 0
h 94 121 0
h 94 122 0
h 94 124 0
h 94 129 0
h 94 130 0
h 94 135 0
h 94 136 0
h 94 137 0
h 94 143 0
h 94 144 0
h 94 146 0
h 95 108 0
h 95 109 0
h 95 111 0
h 95 113 0
h 95 116 0
h 95 122 0
h 95 124 0
h 95 125 0
h 95 130 0
h 95 148 0
h 96 98 0
h 96 101 0
h 96 103 0
h 96 106 0
h 96 109 0
h 96 110 0
h 96 111 0
h 96 112 0
h 96 116 0
h 96 123 0
h 96 127 0
h 96 128 0
h 96 135 0
h 96 140 0
h 96 142 0
h 96 144 0
h 96 146 0
h 96 147 0
h 96 148 0
h 96 150 0
h 97 101 0
h 97 106 0
h 97 107 0
h 97 110 0
h 97 117 0
h 97 122 0
h 97 123 0
h 97 124 0
h 97 140 0
h 97 143 0
h 97 144 0
h 97 146 0
h 98 104 0
h 98 110 0
h 98 112 0
h 98 113 0
h 98 116 0
h 98 118 0
h 98 122 0
h 98 130 0
h 98 133 0
h 98 136 0
h 98 140 0
h 98 142 0
h 98 147 0
h 98 149 0
h 98 150 0
h 99 100 0
h 99 101 0
h 99 109 0
h 99 113 0
h 99 116 0
h 99 117 0
h 99 119 0
h 99 121 0
h 99 122 0
h 99 125 0
h 99 126 0
h 99 132 0
h 99 133 0
h 99 139 0
h 99 140 0
h 99 141 0
h 99 143 0
h 99 144 0
h 99 148 0
h 100 105 0
h 100 115 0
h 100 125 0
h 100 127 0
h 100 132 0
h 100 134 0
h 100 145 0
h 100 147 0
h 100 149 0
h 100 150 0
h 101 103 0
h 101 104 0
h 101 105 0
h 101 107 0
h 101 110 0
h 101 112 0
h 101 115 0
h 101 118 0
h 101 120 0
h 101 122 0
h 101 124 0
h 101 128 0
h 101 143 0
h 102 106 0
h 102 109 0
h 102 110 0
h 102 112 0
h 102 113 0
h 102 117 0
h 102 129 0
h 102 135 0
h 102 136 0
h 102 137 0
h 102 141 0
h 102 143 0
h 102 145 0
h 102 146 0
h 102 148 0
h 102 149 0
h 102 150 0
h 103 106 0
h 103 107 0
h 103 109 0
h 103 113 0
h 103 122 0
h 103 127 0
h 103 138 0
h 103 139 0
h 103 141 0
h 103 147 0
h 103 148 0
h 104 107 0
h 104 113 0
h 104 117 0
h 104 118 0
h 104 119 0
h 104 121 0
h 104 122 0
h 104 126 0
h 104 127 0
h 104 129 0
h 104 133 0
h 104 137 0
h 104 139 0
h 104 140 0
h 104 142 0
h 104 146 0
h 104 147 0
h 105 107 0
h 105 115 0
h 105 116 0
h 105 118 0
h 105 124 0
h 105 127 0
h 105 140 0
h 106 108 0
h 106 111 0
h 106 117 0
h 106 118 0
h 106 120 0
h 106 121 0
h 106 123 0
h 106 124 0
h 106 125 0
h 106 134 0
h 106 140 0
h 106 141 0
h 106 143 0
h 106 149 0
h 107 111 0
h 107 114 0
h 107 115 0
h 107 124 0
h 107 130 0
h 107 132 0
h 107 134 0
h 107 136 0
h 107 141 0
h 107 142 0
h 107 143 0
h 107 147 0
h 108 109 0
h 108 110 0
h 108 114 0
h 108 119 0
h 108 120 0
h 108 127 0
h 108 128 0
h 108 131 0
h 108 137 0
h 108 138 0
h 108 144 0
h 109 111 0
h 109 115 0
h 109 116 0
h 109 117 0
h 109 118 0
h 109 125 0
h 109 131 0
h 109 132 0
h 109 134 0
h 109 138 0
h 109 141 0
h 109 148 0
h 110 112 0
h 110 114 0
h 110 115 0
h 110 118 0
h 110 119 0
h 110 130 0
h 110 135 0
h 110 136 0
h 110 139 0
h 110 145 0
h 111 124 0
h 111 128 0
h 111 134 0
h 111 140 0
h 111 145 0
h 111 147 0
h 111 148 0
h 112 117 0
h 112 118 0
h 112 123 0
h 112 133 0
h 112 148 0
h 113 114 0
h 113 117 0
h 113 121 0
h 113 122 0
h 113 126 0
h 113 127 0
h 113 130 0
h 113 136 0
h 113 137 0
h 113 142 0
h 113 148 0
h 113 149 0
h 113 150 0
h 114 118 0
h 114 121 0
h 114 124 0
h 114 127 0
h 114 135 0
h 114 143 0
h 114 145 0
h 114 147 0
h 114 150 0
h 115 116 0
h 115 123 0
h 115 126 0
h 115 129 0
h 115 141 0
h 115 144 0
h 115 145 0
h 115 148 0
h 115 150 0
h 116 118 0
h 116 121 0
h 116 123 0
h 116 128 0
h 116 130 0
h 116 131 0
h 116 135 0
h 116 138 0
h 116 139 0
h 116 140 0
h 116 142 0
h 116 146 0
h 116 148 0
h 116 149 0
h 117 120 0
h 117 122 0
h 117 123 0
h 117 124 0
h 117 129 0
h 117 130 0
h 117 131 0
h 117 132 0
h 117 134 0
h 117 138 0
h 117 139 0
h 117 141 0
h 117 148 0
h 118 119 0
h 118 121 0
h 118 123 0
h 118 125 0
h 118 131 0
h 118 142 0
h 118 143 0
h 118 144 0
h 118 149 0
h 119 121 0
h 119 123 0
h 119 125 0
h 119 127 0
h 119 128 0
h 119 131 0
h 119 135 0
h 119 136 0
h 119 138 0
h 119 140 0
h 119 145 0
h 119 148 0
h 120 126 0
h 120 127 0
h 120 131 0
h 120 133 0
h 120 135 0
h 120 136 0
h 120 139 0
h 120 140 0
h 120 142 0
h 120 144 0
h 120 147 0
h 121 123 0
h 121 124 0
h 121 126 0
h 121 127 0
h 121 136 0
h 121 137 0
h 121 139 0
h 121 140 0
h 121 142 0
h 121 144 0
h 121 147 0
h 121 148 0
h 122 123 0
h 122 124 0
h 122 125 0
h 122 126 0
h 122 127 0
h 122 128 0
h 122 131 0
h 122 132 0
h 122 134 0
h 122 137 0
h 122 139 0
h 122 140 0
h 122 146 0
h 123 124 0
h 123 125 0
h 123 130 0
h 123 131 0
h 123 132 0
h 123 133 0
h 123 136 0
h 123 144 0
h 123 149 0
h 124 128 0
h 124 132 0
h 124 134 0
h 124 135 0
h 124 141 0
h 124 147 0
h 124 149 0
h 125 127 0
h 125 130 0
h 125 131 0
h 125 132 0
h 125 134 0
h 125 137 0
h 125 142 0
h 125 145 0
h 125 146 0
h 125 147 0
h 125 148 0
h 125 149 0
h 125 150 0
h 126 127 0
h 126 135 0
h 126 143 0
h 127 128 0
h 127 130 0
h 127 137 0
h 127 140 0
h 127 145 0
h 128 136 0
h 128 139 0
h 128 143 0
h 128 148 0
h 129 136 0
h 129 139 0
h 129 141 0
h 129 144 0
h 130 133 0
h 130 138 0
h 130 141 0
h 130 148 0
h 131 136 0
h 131 137 0
h 131 138 0
h 131 139 0
h 132 133 0
h 132 139 0
h 132 146 0
h 132 147 0
h 132 150 0
h 133 135 0
h 133 136 0
h 133 137 0
h 133 139 0
h 133 142 0
h 134 136 0
h 134 137 0
h 134 141 0
h 134 143 0
h 134 147 0
h 134 148 0
h 134 150 0
h 135 148 0
h 135 149 0
h 135 150 0
h 136 137 0
h 136 140 0
h 136 142 0
h 136 148 0
h 137 142 0
h 137 143 0
h 137 145 0
h 137 146 0
h 137 147 0
h 138 140 0
h 138 141 0
h 138 142 0
h 138 145 0
h 139 140 0
h 139 141 0
h 139 143 0
h 139 144 0
h 139 149 0
h 140 142 0
h 140 143 0
h 140 150 0
h 141 142 0
h 141 146 0
h 141 148 0
h 143 147 0
h 143 148 0
h 143 149 0
h 146 150 0
h 147 150 0
h 149 150 0
